<instance format="XCSP3" type="CSP">
  <variables>
    <array id="x" note="x represents the hexagon; on row x[i], only the first n - |n/2 - i| cells are useful (here, n = 13)." size="[13][13]"> -11..115 </array>
  </variables>
  <constraints>
    <allDifferent> x[][0] x[][1] x[][2] x[][3] x[][4] x[][5] x[][6] x[1..2][7] x[2][8] x[3][7..9] x[4][7..10] x[5][7..11] x[6][7..12] x[7][7..11] x[8][7..10] x[9][7..9] x[10][7..8] x[11][7] </allDifferent>
    <group class="rows" note="All rows sum to the magic value">
      <sum>
        <list> %... </list>
        <condition> (eq,508) </condition>
      </sum>
      <args> x[0][0..6] </args>
      <args> x[1][0..7] </args>
      <args> x[2][0..8] </args>
      <args> x[3][0..9] </args>
      <args> x[4][0..10] </args>
      <args> x[5][0..11] </args>
      <args> x[6][] </args>
      <args> x[7][0..11] </args>
      <args> x[8][0..10] </args>
      <args> x[9][0..9] </args>
      <args> x[10][0..8] </args>
      <args> x[11][0..7] </args>
      <args> x[12][0..6] </args>
    </group>
    <group class="rightDiagonals" note="All right-sloping diagonals sum to the magic value">
      <sum>
        <list> %... </list>
        <condition> (eq,508) </condition>
      </sum>
      <args> x[6..12][0] </args>
      <args> x[5][0] x[6..12][1] </args>
      <args> x[4][0] x[5][1] x[6..12][2] </args>
      <args> x[3][0] x[4][1] x[5][2] x[6..12][3] </args>
      <args> x[2][0] x[3][1] x[4][2] x[5][3] x[6..12][4] </args>
      <args> x[1][0] x[2][1] x[3][2] x[4][3] x[5][4] x[6..12][5] </args>
      <args> x[0][0] x[1][1] x[2][2] x[3][3] x[4][4] x[5][5] x[6..12][6] </args>
      <args> x[0][1] x[1][2] x[2][3] x[3][4] x[4][5] x[5][6] x[6..11][7] </args>
      <args> x[0][2] x[1][3] x[2][4] x[3][5] x[4][6] x[5][7] x[6..10][8] </args>
      <args> x[0][3] x[1][4] x[2][5] x[3][6] x[4][7] x[5][8] x[6..9][9] </args>
      <args> x[0][4] x[1][5] x[2][6] x[3][7] x[4][8] x[5][9] x[6..8][10] </args>
      <args> x[0][5] x[1][6] x[2][7] x[3][8] x[4][9] x[5][10] x[6..7][11] </args>
      <args> x[0][6] x[1][7] x[2][8] x[3][9] x[4][10] x[5][11] x[6][12] </args>
    </group>
    <group class="leftDiagonals" note="All left-sloping diagonals sum to the magic value">
      <sum>
        <list> %... </list>
        <condition> (eq,508) </condition>
      </sum>
      <args> x[0..6][0] </args>
      <args> x[0..6][1] x[7][0] </args>
      <args> x[0..6][2] x[7][1] x[8][0] </args>
      <args> x[0..6][3] x[7][2] x[8][1] x[9][0] </args>
      <args> x[0..6][4] x[7][3] x[8][2] x[9][1] x[10][0] </args>
      <args> x[0..6][5] x[7][4] x[8][3] x[9][2] x[10][1] x[11][0] </args>
      <args> x[0..6][6] x[7][5] x[8][4] x[9][3] x[10][2] x[11][1] x[12][0] </args>
      <args> x[1..6][7] x[7][6] x[8][5] x[9][4] x[10][3] x[11][2] x[12][1] </args>
      <args> x[2..6][8] x[7][7] x[8][6] x[9][5] x[10][4] x[11][3] x[12][2] </args>
      <args> x[3..6][9] x[7][8] x[8][7] x[9][6] x[10][5] x[11][4] x[12][3] </args>
      <args> x[4..6][10] x[7][9] x[8][8] x[9][7] x[10][6] x[11][5] x[12][4] </args>
      <args> x[5..6][11] x[7][10] x[8][9] x[9][8] x[10][7] x[11][6] x[12][5] </args>
      <args> x[6][12] x[7][11] x[8][10] x[9][9] x[10][8] x[11][7] x[12][6] </args>
    </group>
    <group class="symmetryBreaking">
      <intension> lt(%0,%1) </intension>
      <args> x[0][0] x[0][6] </args>
      <args> x[0][0] x[6][12] </args>
      <args> x[0][0] x[12][6] </args>
      <args> x[0][0] x[12][0] </args>
      <args> x[0][0] x[6][0] </args>
      <args> x[0][6] x[6][0] </args>
    </group>
  </constraints>
</instance>
